SYSTEM = test
PREC   =   Accurate
ISTART =      0
ICHARG =      2
LREAL  =      F
EDIFFG = -0.01
EDIFF  = 0.000001
ENCUT  =  400
LWAVE  =      F
LCHARG =      F
NSW    =    200
IBRION =     2
POTIM  =    0.2
#ISYM   =     0
ISIF   =   3
ISMEAR =   0
SIGMA  =   0.05
KSPACING = 0.3
KGAMMA = T
