Cs4 Pb4 I12
1.0
4.878714 0.000000 0.000000
0.000000 10.811909 0.000000
0.000000 0.000000 18.213174
Cs Pb I
4 4 12
direct
0.750000 0.081606 0.672203
0.250000 0.918394 0.327797
0.750000 0.581606 0.827797
0.250000 0.418394 0.172203
0.250000 0.161221 0.939206
0.750000 0.838779 0.060794
0.250000 0.661221 0.560794
0.750000 0.338779 0.439206
0.750000 0.336222 0.000604
0.250000 0.663778 0.999396
0.750000 0.836222 0.499396
0.250000 0.163778 0.500604
0.250000 0.028690 0.111645
0.750000 0.971310 0.888355
0.250000 0.528690 0.388355
0.750000 0.471310 0.611645
0.250000 0.297225 0.788475
0.750000 0.702775 0.211525
0.250000 0.797225 0.711525
0.750000 0.202775 0.288475